pair_coeff 1 1 lj/cut/coul/long 0.1554 3.16557
pair_coeff 2 2 lj/cut/coul/long 0.0 0.0
pair_coeff 3 3 lj/cut/coul/long 0.066 3.5
pair_coeff 4 4 lj/cut/coul/long 0.03 2.5
bond_coeff 1 harmonic 268.0 1.529
bond_coeff 2 harmonic 340.0 1.09
bond_coeff 3 harmonic 600.0 1.0
angle_coeff 1 harmonic 58.35 112.7
angle_coeff 2 harmonic 33.0 107.8
angle_coeff 3 harmonic 37.5 110.7
angle_coeff 4 harmonic 75.0 109.47
dihedral_coeff 1 opls 1.3 -0.05 0.2 0.0
dihedral_coeff 2 opls 0.0 0.0 0.3 0.0
dihedral_coeff 3 opls 0.0 0.0 0.3 0.0
set type 1 charge -0.82
set type 2 charge 0.41
set type 3 charge -0.06
set type 4 charge 0.06
